\ Model (null)_copy
\ LP format - for model browsing. Use MPS format to capture full model detail.
Minimize
 
Subject To
 c17_p0: 4.15 x120 + 4.15 x130 + 4.15 x140 + 4.15 x150 + 4.15 x160
   + 4.15 x170 + 4.15 x180 + 4.15 x190 + 4.15 x1100 + 4.15 x1110
   + 5.46 x210 + 5.46 x230 + 5.46 x240 + 5.46 x250 + 5.46 x260 + 5.46 x270
   + 5.46 x280 + 5.46 x290 + 5.46 x2100 + 5.46 x2110 + 13.46 x310
   + 13.46 x320 + 13.46 x340 + 13.46 x350 + 13.46 x360 + 13.46 x370
   + 13.46 x380 + 13.46 x390 + 13.46 x3100 + 13.46 x3110 + 5.46 x410
   + 5.46 x420 + 5.46 x430 + 5.46 x450 + 5.46 x460 + 5.46 x470 + 5.46 x480
   + 5.46 x490 + 5.46 x4100 + 5.46 x4110 + 0.91 x610 + 0.91 x620
   + 0.91 x630 + 0.91 x640 + 0.91 x650 + 0.91 x670 + 0.91 x680 + 0.91 x690
   + 0.91 x6100 + 0.91 x6110 + 5.1 x710 + 5.1 x720 + 5.1 x730 + 5.1 x740
   + 5.1 x750 + 5.1 x760 + 5.1 x780 + 5.1 x790 + 5.1 x7100 + 5.1 x7110
   + 5.85 x810 + 5.85 x820 + 5.85 x830 + 5.85 x840 + 5.85 x850 + 5.85 x860
   + 5.85 x870 + 5.85 x890 + 5.85 x8100 + 5.85 x8110 + 5.85 x910
   + 5.85 x920 + 5.85 x930 + 5.85 x940 + 5.85 x950 + 5.85 x960 + 5.85 x970
   + 5.85 x980 + 5.85 x9100 + 5.85 x9110 + 5.1 x1010 + 5.1 x1020
   + 5.1 x1030 + 5.1 x1040 + 5.1 x1050 + 5.1 x1060 + 5.1 x1070 + 5.1 x1080
   + 5.1 x1090 + 5.1 x10110 + 101.1 delta50 <= 10
 c17_p1: 4.15 x121 + 4.15 x131 + 4.15 x141 + 4.15 x151 + 4.15 x161
   + 4.15 x171 + 4.15 x181 + 4.15 x191 + 4.15 x1101 + 4.15 x1111
   + 5.46 x211 + 5.46 x231 + 5.46 x241 + 5.46 x251 + 5.46 x261 + 5.46 x271
   + 5.46 x281 + 5.46 x291 + 5.46 x2101 + 5.46 x2111 + 13.46 x311
   + 13.46 x321 + 13.46 x341 + 13.46 x351 + 13.46 x361 + 13.46 x371
   + 13.46 x381 + 13.46 x391 + 13.46 x3101 + 13.46 x3111 + 5.46 x411
   + 5.46 x421 + 5.46 x431 + 5.46 x451 + 5.46 x461 + 5.46 x471 + 5.46 x481
   + 5.46 x491 + 5.46 x4101 + 5.46 x4111 + 0.91 x611 + 0.91 x621
   + 0.91 x631 + 0.91 x641 + 0.91 x651 + 0.91 x671 + 0.91 x681 + 0.91 x691
   + 0.91 x6101 + 0.91 x6111 + 5.1 x711 + 5.1 x721 + 5.1 x731 + 5.1 x741
   + 5.1 x751 + 5.1 x761 + 5.1 x781 + 5.1 x791 + 5.1 x7101 + 5.1 x7111
   + 5.85 x811 + 5.85 x821 + 5.85 x831 + 5.85 x841 + 5.85 x851 + 5.85 x861
   + 5.85 x871 + 5.85 x891 + 5.85 x8101 + 5.85 x8111 + 5.85 x911
   + 5.85 x921 + 5.85 x931 + 5.85 x941 + 5.85 x951 + 5.85 x961 + 5.85 x971
   + 5.85 x981 + 5.85 x9101 + 5.85 x9111 + 5.1 x1011 + 5.1 x1021
   + 5.1 x1031 + 5.1 x1041 + 5.1 x1051 + 5.1 x1061 + 5.1 x1071 + 5.1 x1081
   + 5.1 x1091 + 5.1 x10111 + 101.1 delta51 <= 10
 c17_p2: 4.15 x122 + 4.15 x132 + 4.15 x142 + 4.15 x152 + 4.15 x162
   + 4.15 x172 + 4.15 x182 + 4.15 x192 + 4.15 x1102 + 4.15 x1112
   + 5.46 x212 + 5.46 x232 + 5.46 x242 + 5.46 x252 + 5.46 x262 + 5.46 x272
   + 5.46 x282 + 5.46 x292 + 5.46 x2102 + 5.46 x2112 + 13.46 x312
   + 13.46 x322 + 13.46 x342 + 13.46 x352 + 13.46 x362 + 13.46 x372
   + 13.46 x382 + 13.46 x392 + 13.46 x3102 + 13.46 x3112 + 5.46 x412
   + 5.46 x422 + 5.46 x432 + 5.46 x452 + 5.46 x462 + 5.46 x472 + 5.46 x482
   + 5.46 x492 + 5.46 x4102 + 5.46 x4112 + 0.91 x612 + 0.91 x622
   + 0.91 x632 + 0.91 x642 + 0.91 x652 + 0.91 x672 + 0.91 x682 + 0.91 x692
   + 0.91 x6102 + 0.91 x6112 + 5.1 x712 + 5.1 x722 + 5.1 x732 + 5.1 x742
   + 5.1 x752 + 5.1 x762 + 5.1 x782 + 5.1 x792 + 5.1 x7102 + 5.1 x7112
   + 5.85 x812 + 5.85 x822 + 5.85 x832 + 5.85 x842 + 5.85 x852 + 5.85 x862
   + 5.85 x872 + 5.85 x892 + 5.85 x8102 + 5.85 x8112 + 5.85 x912
   + 5.85 x922 + 5.85 x932 + 5.85 x942 + 5.85 x952 + 5.85 x962 + 5.85 x972
   + 5.85 x982 + 5.85 x9102 + 5.85 x9112 + 5.1 x1012 + 5.1 x1022
   + 5.1 x1032 + 5.1 x1042 + 5.1 x1052 + 5.1 x1062 + 5.1 x1072 + 5.1 x1082
   + 5.1 x1092 + 5.1 x10112 + 101.1 delta52 <= 10
 c17_p3: 4.15 x123 + 4.15 x133 + 4.15 x143 + 4.15 x153 + 4.15 x163
   + 4.15 x173 + 4.15 x183 + 4.15 x193 + 4.15 x1103 + 4.15 x1113
   + 5.46 x213 + 5.46 x233 + 5.46 x243 + 5.46 x253 + 5.46 x263 + 5.46 x273
   + 5.46 x283 + 5.46 x293 + 5.46 x2103 + 5.46 x2113 + 13.46 x313
   + 13.46 x323 + 13.46 x343 + 13.46 x353 + 13.46 x363 + 13.46 x373
   + 13.46 x383 + 13.46 x393 + 13.46 x3103 + 13.46 x3113 + 5.46 x413
   + 5.46 x423 + 5.46 x433 + 5.46 x453 + 5.46 x463 + 5.46 x473 + 5.46 x483
   + 5.46 x493 + 5.46 x4103 + 5.46 x4113 + 0.91 x613 + 0.91 x623
   + 0.91 x633 + 0.91 x643 + 0.91 x653 + 0.91 x673 + 0.91 x683 + 0.91 x693
   + 0.91 x6103 + 0.91 x6113 + 5.1 x713 + 5.1 x723 + 5.1 x733 + 5.1 x743
   + 5.1 x753 + 5.1 x763 + 5.1 x783 + 5.1 x793 + 5.1 x7103 + 5.1 x7113
   + 5.85 x813 + 5.85 x823 + 5.85 x833 + 5.85 x843 + 5.85 x853 + 5.85 x863
   + 5.85 x873 + 5.85 x893 + 5.85 x8103 + 5.85 x8113 + 5.85 x913
   + 5.85 x923 + 5.85 x933 + 5.85 x943 + 5.85 x953 + 5.85 x963 + 5.85 x973
   + 5.85 x983 + 5.85 x9103 + 5.85 x9113 + 5.1 x1013 + 5.1 x1023
   + 5.1 x1033 + 5.1 x1043 + 5.1 x1053 + 5.1 x1063 + 5.1 x1073 + 5.1 x1083
   + 5.1 x1093 + 5.1 x10113 + 101.1 delta53 <= 20
 c17_p4: 4.15 x124 + 4.15 x134 + 4.15 x144 + 4.15 x154 + 4.15 x164
   + 4.15 x174 + 4.15 x184 + 4.15 x194 + 4.15 x1104 + 4.15 x1114
   + 5.46 x214 + 5.46 x234 + 5.46 x244 + 5.46 x254 + 5.46 x264 + 5.46 x274
   + 5.46 x284 + 5.46 x294 + 5.46 x2104 + 5.46 x2114 + 13.46 x314
   + 13.46 x324 + 13.46 x344 + 13.46 x354 + 13.46 x364 + 13.46 x374
   + 13.46 x384 + 13.46 x394 + 13.46 x3104 + 13.46 x3114 + 5.46 x414
   + 5.46 x424 + 5.46 x434 + 5.46 x454 + 5.46 x464 + 5.46 x474 + 5.46 x484
   + 5.46 x494 + 5.46 x4104 + 5.46 x4114 + 0.91 x614 + 0.91 x624
   + 0.91 x634 + 0.91 x644 + 0.91 x654 + 0.91 x674 + 0.91 x684 + 0.91 x694
   + 0.91 x6104 + 0.91 x6114 + 5.1 x714 + 5.1 x724 + 5.1 x734 + 5.1 x744
   + 5.1 x754 + 5.1 x764 + 5.1 x784 + 5.1 x794 + 5.1 x7104 + 5.1 x7114
   + 5.85 x814 + 5.85 x824 + 5.85 x834 + 5.85 x844 + 5.85 x854 + 5.85 x864
   + 5.85 x874 + 5.85 x894 + 5.85 x8104 + 5.85 x8114 + 5.85 x914
   + 5.85 x924 + 5.85 x934 + 5.85 x944 + 5.85 x954 + 5.85 x964 + 5.85 x974
   + 5.85 x984 + 5.85 x9104 + 5.85 x9114 + 5.1 x1014 + 5.1 x1024
   + 5.1 x1034 + 5.1 x1044 + 5.1 x1054 + 5.1 x1064 + 5.1 x1074 + 5.1 x1084
   + 5.1 x1094 + 5.1 x10114 + 101.1 delta54 <= 20
 c17_p5: 4.15 x125 + 4.15 x135 + 4.15 x145 + 4.15 x155 + 4.15 x165
   + 4.15 x175 + 4.15 x185 + 4.15 x195 + 4.15 x1105 + 4.15 x1115
   + 5.46 x215 + 5.46 x235 + 5.46 x245 + 5.46 x255 + 5.46 x265 + 5.46 x275
   + 5.46 x285 + 5.46 x295 + 5.46 x2105 + 5.46 x2115 + 13.46 x315
   + 13.46 x325 + 13.46 x345 + 13.46 x355 + 13.46 x365 + 13.46 x375
   + 13.46 x385 + 13.46 x395 + 13.46 x3105 + 13.46 x3115 + 5.46 x415
   + 5.46 x425 + 5.46 x435 + 5.46 x455 + 5.46 x465 + 5.46 x475 + 5.46 x485
   + 5.46 x495 + 5.46 x4105 + 5.46 x4115 + 0.91 x615 + 0.91 x625
   + 0.91 x635 + 0.91 x645 + 0.91 x655 + 0.91 x675 + 0.91 x685 + 0.91 x695
   + 0.91 x6105 + 0.91 x6115 + 5.1 x715 + 5.1 x725 + 5.1 x735 + 5.1 x745
   + 5.1 x755 + 5.1 x765 + 5.1 x785 + 5.1 x795 + 5.1 x7105 + 5.1 x7115
   + 5.85 x815 + 5.85 x825 + 5.85 x835 + 5.85 x845 + 5.85 x855 + 5.85 x865
   + 5.85 x875 + 5.85 x895 + 5.85 x8105 + 5.85 x8115 + 5.85 x915
   + 5.85 x925 + 5.85 x935 + 5.85 x945 + 5.85 x955 + 5.85 x965 + 5.85 x975
   + 5.85 x985 + 5.85 x9105 + 5.85 x9115 + 5.1 x1015 + 5.1 x1025
   + 5.1 x1035 + 5.1 x1045 + 5.1 x1055 + 5.1 x1065 + 5.1 x1075 + 5.1 x1085
   + 5.1 x1095 + 5.1 x10115 + 101.1 delta55 <= 20
 c17_p6: 4.15 x126 + 4.15 x136 + 4.15 x146 + 4.15 x156 + 4.15 x166
   + 4.15 x176 + 4.15 x186 + 4.15 x196 + 4.15 x1106 + 4.15 x1116
   + 5.46 x216 + 5.46 x236 + 5.46 x246 + 5.46 x256 + 5.46 x266 + 5.46 x276
   + 5.46 x286 + 5.46 x296 + 5.46 x2106 + 5.46 x2116 + 13.46 x316
   + 13.46 x326 + 13.46 x346 + 13.46 x356 + 13.46 x366 + 13.46 x376
   + 13.46 x386 + 13.46 x396 + 13.46 x3106 + 13.46 x3116 + 5.46 x416
   + 5.46 x426 + 5.46 x436 + 5.46 x456 + 5.46 x466 + 5.46 x476 + 5.46 x486
   + 5.46 x496 + 5.46 x4106 + 5.46 x4116 + 0.91 x616 + 0.91 x626
   + 0.91 x636 + 0.91 x646 + 0.91 x656 + 0.91 x676 + 0.91 x686 + 0.91 x696
   + 0.91 x6106 + 0.91 x6116 + 5.1 x716 + 5.1 x726 + 5.1 x736 + 5.1 x746
   + 5.1 x756 + 5.1 x766 + 5.1 x786 + 5.1 x796 + 5.1 x7106 + 5.1 x7116
   + 5.85 x816 + 5.85 x826 + 5.85 x836 + 5.85 x846 + 5.85 x856 + 5.85 x866
   + 5.85 x876 + 5.85 x896 + 5.85 x8106 + 5.85 x8116 + 5.85 x916
   + 5.85 x926 + 5.85 x936 + 5.85 x946 + 5.85 x956 + 5.85 x966 + 5.85 x976
   + 5.85 x986 + 5.85 x9106 + 5.85 x9116 + 5.1 x1016 + 5.1 x1026
   + 5.1 x1036 + 5.1 x1046 + 5.1 x1056 + 5.1 x1066 + 5.1 x1076 + 5.1 x1086
   + 5.1 x1096 + 5.1 x10116 + 101.1 delta56 <= 100
 c17_p7: 4.15 x127 + 4.15 x137 + 4.15 x147 + 4.15 x157 + 4.15 x167
   + 4.15 x177 + 4.15 x187 + 4.15 x197 + 4.15 x1107 + 4.15 x1117
   + 5.46 x217 + 5.46 x237 + 5.46 x247 + 5.46 x257 + 5.46 x267 + 5.46 x277
   + 5.46 x287 + 5.46 x297 + 5.46 x2107 + 5.46 x2117 + 13.46 x317
   + 13.46 x327 + 13.46 x347 + 13.46 x357 + 13.46 x367 + 13.46 x377
   + 13.46 x387 + 13.46 x397 + 13.46 x3107 + 13.46 x3117 + 5.46 x417
   + 5.46 x427 + 5.46 x437 + 5.46 x457 + 5.46 x467 + 5.46 x477 + 5.46 x487
   + 5.46 x497 + 5.46 x4107 + 5.46 x4117 + 0.91 x617 + 0.91 x627
   + 0.91 x637 + 0.91 x647 + 0.91 x657 + 0.91 x677 + 0.91 x687 + 0.91 x697
   + 0.91 x6107 + 0.91 x6117 + 5.1 x717 + 5.1 x727 + 5.1 x737 + 5.1 x747
   + 5.1 x757 + 5.1 x767 + 5.1 x787 + 5.1 x797 + 5.1 x7107 + 5.1 x7117
   + 5.85 x817 + 5.85 x827 + 5.85 x837 + 5.85 x847 + 5.85 x857 + 5.85 x867
   + 5.85 x877 + 5.85 x897 + 5.85 x8107 + 5.85 x8117 + 5.85 x917
   + 5.85 x927 + 5.85 x937 + 5.85 x947 + 5.85 x957 + 5.85 x967 + 5.85 x977
   + 5.85 x987 + 5.85 x9107 + 5.85 x9117 + 5.1 x1017 + 5.1 x1027
   + 5.1 x1037 + 5.1 x1047 + 5.1 x1057 + 5.1 x1067 + 5.1 x1077 + 5.1 x1087
   + 5.1 x1097 + 5.1 x10117 + 101.1 delta57 <= 100
 c17_p8: 4.15 x128 + 4.15 x138 + 4.15 x148 + 4.15 x158 + 4.15 x168
   + 4.15 x178 + 4.15 x188 + 4.15 x198 + 4.15 x1108 + 4.15 x1118
   + 5.46 x218 + 5.46 x238 + 5.46 x248 + 5.46 x258 + 5.46 x268 + 5.46 x278
   + 5.46 x288 + 5.46 x298 + 5.46 x2108 + 5.46 x2118 + 13.46 x318
   + 13.46 x328 + 13.46 x348 + 13.46 x358 + 13.46 x368 + 13.46 x378
   + 13.46 x388 + 13.46 x398 + 13.46 x3108 + 13.46 x3118 + 5.46 x418
   + 5.46 x428 + 5.46 x438 + 5.46 x458 + 5.46 x468 + 5.46 x478 + 5.46 x488
   + 5.46 x498 + 5.46 x4108 + 5.46 x4118 + 0.91 x618 + 0.91 x628
   + 0.91 x638 + 0.91 x648 + 0.91 x658 + 0.91 x678 + 0.91 x688 + 0.91 x698
   + 0.91 x6108 + 0.91 x6118 + 5.1 x718 + 5.1 x728 + 5.1 x738 + 5.1 x748
   + 5.1 x758 + 5.1 x768 + 5.1 x788 + 5.1 x798 + 5.1 x7108 + 5.1 x7118
   + 5.85 x818 + 5.85 x828 + 5.85 x838 + 5.85 x848 + 5.85 x858 + 5.85 x868
   + 5.85 x878 + 5.85 x898 + 5.85 x8108 + 5.85 x8118 + 5.85 x918
   + 5.85 x928 + 5.85 x938 + 5.85 x948 + 5.85 x958 + 5.85 x968 + 5.85 x978
   + 5.85 x988 + 5.85 x9108 + 5.85 x9118 + 5.1 x1018 + 5.1 x1028
   + 5.1 x1038 + 5.1 x1048 + 5.1 x1058 + 5.1 x1068 + 5.1 x1078 + 5.1 x1088
   + 5.1 x1098 + 5.1 x10118 + 101.1 delta58 <= 100
 c17_p9: 4.15 x129 + 4.15 x139 + 4.15 x149 + 4.15 x159 + 4.15 x169
   + 4.15 x179 + 4.15 x189 + 4.15 x199 + 4.15 x1109 + 4.15 x1119
   + 5.46 x219 + 5.46 x239 + 5.46 x249 + 5.46 x259 + 5.46 x269 + 5.46 x279
   + 5.46 x289 + 5.46 x299 + 5.46 x2109 + 5.46 x2119 + 13.46 x319
   + 13.46 x329 + 13.46 x349 + 13.46 x359 + 13.46 x369 + 13.46 x379
   + 13.46 x389 + 13.46 x399 + 13.46 x3109 + 13.46 x3119 + 5.46 x419
   + 5.46 x429 + 5.46 x439 + 5.46 x459 + 5.46 x469 + 5.46 x479 + 5.46 x489
   + 5.46 x499 + 5.46 x4109 + 5.46 x4119 + 0.91 x619 + 0.91 x629
   + 0.91 x639 + 0.91 x649 + 0.91 x659 + 0.91 x679 + 0.91 x689 + 0.91 x699
   + 0.91 x6109 + 0.91 x6119 + 5.1 x719 + 5.1 x729 + 5.1 x739 + 5.1 x749
   + 5.1 x759 + 5.1 x769 + 5.1 x789 + 5.1 x799 + 5.1 x7109 + 5.1 x7119
   + 5.85 x819 + 5.85 x829 + 5.85 x839 + 5.85 x849 + 5.85 x859 + 5.85 x869
   + 5.85 x879 + 5.85 x899 + 5.85 x8109 + 5.85 x8119 + 5.85 x919
   + 5.85 x929 + 5.85 x939 + 5.85 x949 + 5.85 x959 + 5.85 x969 + 5.85 x979
   + 5.85 x989 + 5.85 x9109 + 5.85 x9119 + 5.1 x1019 + 5.1 x1029
   + 5.1 x1039 + 5.1 x1049 + 5.1 x1059 + 5.1 x1069 + 5.1 x1079 + 5.1 x1089
   + 5.1 x1099 + 5.1 x10119 + 101.1 delta59 <= 100
 c17_p10: 4.15 x1210 + 4.15 x1310 + 4.15 x1410 + 4.15 x1510 + 4.15 x1610
   + 4.15 x1710 + 4.15 x1810 + 4.15 x1910 + 4.15 x11010 + 4.15 x11110
   + 5.46 x2110 + 5.46 x2310 + 5.46 x2410 + 5.46 x2510 + 5.46 x2610
   + 5.46 x2710 + 5.46 x2810 + 5.46 x2910 + 5.46 x21010 + 5.46 x21110
   + 13.46 x3110 + 13.46 x3210 + 13.46 x3410 + 13.46 x3510 + 13.46 x3610
   + 13.46 x3710 + 13.46 x3810 + 13.46 x3910 + 13.46 x31010 + 13.46 x31110
   + 5.46 x4110 + 5.46 x4210 + 5.46 x4310 + 5.46 x4510 + 5.46 x4610
   + 5.46 x4710 + 5.46 x4810 + 5.46 x4910 + 5.46 x41010 + 5.46 x41110
   + 0.91 x6110 + 0.91 x6210 + 0.91 x6310 + 0.91 x6410 + 0.91 x6510
   + 0.91 x6710 + 0.91 x6810 + 0.91 x6910 + 0.91 x61010 + 0.91 x61110
   + 5.1 x7110 + 5.1 x7210 + 5.1 x7310 + 5.1 x7410 + 5.1 x7510 + 5.1 x7610
   + 5.1 x7810 + 5.1 x7910 + 5.1 x71010 + 5.1 x71110 + 5.85 x8110
   + 5.85 x8210 + 5.85 x8310 + 5.85 x8410 + 5.85 x8510 + 5.85 x8610
   + 5.85 x8710 + 5.85 x8910 + 5.85 x81010 + 5.85 x81110 + 5.85 x9110
   + 5.85 x9210 + 5.85 x9310 + 5.85 x9410 + 5.85 x9510 + 5.85 x9610
   + 5.85 x9710 + 5.85 x9810 + 5.85 x91010 + 5.85 x91110 + 5.1 x10110
   + 5.1 x10210 + 5.1 x10310 + 5.1 x10410 + 5.1 x10510 + 5.1 x10610
   + 5.1 x10710 + 5.1 x10810 + 5.1 x10910 + 5.1 x101110 + 101.1 delta510
   <= 100
 c17_p11: 4.15 x1211 + 4.15 x1311 + 4.15 x1411 + 4.15 x1511 + 4.15 x1611
   + 4.15 x1711 + 4.15 x1811 + 4.15 x1911 + 4.15 x11011 + 4.15 x11111
   + 5.46 x2111 + 5.46 x2311 + 5.46 x2411 + 5.46 x2511 + 5.46 x2611
   + 5.46 x2711 + 5.46 x2811 + 5.46 x2911 + 5.46 x21011 + 5.46 x21111
   + 13.46 x3111 + 13.46 x3211 + 13.46 x3411 + 13.46 x3511 + 13.46 x3611
   + 13.46 x3711 + 13.46 x3811 + 13.46 x3911 + 13.46 x31011 + 13.46 x31111
   + 5.46 x4111 + 5.46 x4211 + 5.46 x4311 + 5.46 x4511 + 5.46 x4611
   + 5.46 x4711 + 5.46 x4811 + 5.46 x4911 + 5.46 x41011 + 5.46 x41111
   + 0.91 x6111 + 0.91 x6211 + 0.91 x6311 + 0.91 x6411 + 0.91 x6511
   + 0.91 x6711 + 0.91 x6811 + 0.91 x6911 + 0.91 x61011 + 0.91 x61111
   + 5.1 x7111 + 5.1 x7211 + 5.1 x7311 + 5.1 x7411 + 5.1 x7511 + 5.1 x7611
   + 5.1 x7811 + 5.1 x7911 + 5.1 x71011 + 5.1 x71111 + 5.85 x8111
   + 5.85 x8211 + 5.85 x8311 + 5.85 x8411 + 5.85 x8511 + 5.85 x8611
   + 5.85 x8711 + 5.85 x8911 + 5.85 x81011 + 5.85 x81111 + 5.85 x9111
   + 5.85 x9211 + 5.85 x9311 + 5.85 x9411 + 5.85 x9511 + 5.85 x9611
   + 5.85 x9711 + 5.85 x9811 + 5.85 x91011 + 5.85 x91111 + 5.1 x10111
   + 5.1 x10211 + 5.1 x10311 + 5.1 x10411 + 5.1 x10511 + 5.1 x10611
   + 5.1 x10711 + 5.1 x10811 + 5.1 x10911 + 5.1 x101111 + 101.1 delta511
   <= 100
 c17_p12: 4.15 x1212 + 4.15 x1312 + 4.15 x1412 + 4.15 x1512 + 4.15 x1612
   + 4.15 x1712 + 4.15 x1812 + 4.15 x1912 + 4.15 x11012 + 4.15 x11112
   + 5.46 x2112 + 5.46 x2312 + 5.46 x2412 + 5.46 x2512 + 5.46 x2612
   + 5.46 x2712 + 5.46 x2812 + 5.46 x2912 + 5.46 x21012 + 5.46 x21112
   + 13.46 x3112 + 13.46 x3212 + 13.46 x3412 + 13.46 x3512 + 13.46 x3612
   + 13.46 x3712 + 13.46 x3812 + 13.46 x3912 + 13.46 x31012 + 13.46 x31112
   + 5.46 x4112 + 5.46 x4212 + 5.46 x4312 + 5.46 x4512 + 5.46 x4612
   + 5.46 x4712 + 5.46 x4812 + 5.46 x4912 + 5.46 x41012 + 5.46 x41112
   + 0.91 x6112 + 0.91 x6212 + 0.91 x6312 + 0.91 x6412 + 0.91 x6512
   + 0.91 x6712 + 0.91 x6812 + 0.91 x6912 + 0.91 x61012 + 0.91 x61112
   + 5.1 x7112 + 5.1 x7212 + 5.1 x7312 + 5.1 x7412 + 5.1 x7512 + 5.1 x7612
   + 5.1 x7812 + 5.1 x7912 + 5.1 x71012 + 5.1 x71112 + 5.85 x8112
   + 5.85 x8212 + 5.85 x8312 + 5.85 x8412 + 5.85 x8512 + 5.85 x8612
   + 5.85 x8712 + 5.85 x8912 + 5.85 x81012 + 5.85 x81112 + 5.85 x9112
   + 5.85 x9212 + 5.85 x9312 + 5.85 x9412 + 5.85 x9512 + 5.85 x9612
   + 5.85 x9712 + 5.85 x9812 + 5.85 x91012 + 5.85 x91112 + 5.1 x10112
   + 5.1 x10212 + 5.1 x10312 + 5.1 x10412 + 5.1 x10512 + 5.1 x10612
   + 5.1 x10712 + 5.1 x10812 + 5.1 x10912 + 5.1 x101112 + 101.1 delta512
   <= 100
 c17_p13: 4.15 x1213 + 4.15 x1313 + 4.15 x1413 + 4.15 x1513 + 4.15 x1613
   + 4.15 x1713 + 4.15 x1813 + 4.15 x1913 + 4.15 x11013 + 4.15 x11113
   + 5.46 x2113 + 5.46 x2313 + 5.46 x2413 + 5.46 x2513 + 5.46 x2613
   + 5.46 x2713 + 5.46 x2813 + 5.46 x2913 + 5.46 x21013 + 5.46 x21113
   + 13.46 x3113 + 13.46 x3213 + 13.46 x3413 + 13.46 x3513 + 13.46 x3613
   + 13.46 x3713 + 13.46 x3813 + 13.46 x3913 + 13.46 x31013 + 13.46 x31113
   + 5.46 x4113 + 5.46 x4213 + 5.46 x4313 + 5.46 x4513 + 5.46 x4613
   + 5.46 x4713 + 5.46 x4813 + 5.46 x4913 + 5.46 x41013 + 5.46 x41113
   + 0.91 x6113 + 0.91 x6213 + 0.91 x6313 + 0.91 x6413 + 0.91 x6513
   + 0.91 x6713 + 0.91 x6813 + 0.91 x6913 + 0.91 x61013 + 0.91 x61113
   + 5.1 x7113 + 5.1 x7213 + 5.1 x7313 + 5.1 x7413 + 5.1 x7513 + 5.1 x7613
   + 5.1 x7813 + 5.1 x7913 + 5.1 x71013 + 5.1 x71113 + 5.85 x8113
   + 5.85 x8213 + 5.85 x8313 + 5.85 x8413 + 5.85 x8513 + 5.85 x8613
   + 5.85 x8713 + 5.85 x8913 + 5.85 x81013 + 5.85 x81113 + 5.85 x9113
   + 5.85 x9213 + 5.85 x9313 + 5.85 x9413 + 5.85 x9513 + 5.85 x9613
   + 5.85 x9713 + 5.85 x9813 + 5.85 x91013 + 5.85 x91113 + 5.1 x10113
   + 5.1 x10213 + 5.1 x10313 + 5.1 x10413 + 5.1 x10513 + 5.1 x10613
   + 5.1 x10713 + 5.1 x10813 + 5.1 x10913 + 5.1 x101113 + 101.1 delta513
   <= 100
 c17_p14: 4.15 x1214 + 4.15 x1314 + 4.15 x1414 + 4.15 x1514 + 4.15 x1614
   + 4.15 x1714 + 4.15 x1814 + 4.15 x1914 + 4.15 x11014 + 4.15 x11114
   + 5.46 x2114 + 5.46 x2314 + 5.46 x2414 + 5.46 x2514 + 5.46 x2614
   + 5.46 x2714 + 5.46 x2814 + 5.46 x2914 + 5.46 x21014 + 5.46 x21114
   + 13.46 x3114 + 13.46 x3214 + 13.46 x3414 + 13.46 x3514 + 13.46 x3614
   + 13.46 x3714 + 13.46 x3814 + 13.46 x3914 + 13.46 x31014 + 13.46 x31114
   + 5.46 x4114 + 5.46 x4214 + 5.46 x4314 + 5.46 x4514 + 5.46 x4614
   + 5.46 x4714 + 5.46 x4814 + 5.46 x4914 + 5.46 x41014 + 5.46 x41114
   + 0.91 x6114 + 0.91 x6214 + 0.91 x6314 + 0.91 x6414 + 0.91 x6514
   + 0.91 x6714 + 0.91 x6814 + 0.91 x6914 + 0.91 x61014 + 0.91 x61114
   + 5.1 x7114 + 5.1 x7214 + 5.1 x7314 + 5.1 x7414 + 5.1 x7514 + 5.1 x7614
   + 5.1 x7814 + 5.1 x7914 + 5.1 x71014 + 5.1 x71114 + 5.85 x8114
   + 5.85 x8214 + 5.85 x8314 + 5.85 x8414 + 5.85 x8514 + 5.85 x8614
   + 5.85 x8714 + 5.85 x8914 + 5.85 x81014 + 5.85 x81114 + 5.85 x9114
   + 5.85 x9214 + 5.85 x9314 + 5.85 x9414 + 5.85 x9514 + 5.85 x9614
   + 5.85 x9714 + 5.85 x9814 + 5.85 x91014 + 5.85 x91114 + 5.1 x10114
   + 5.1 x10214 + 5.1 x10314 + 5.1 x10414 + 5.1 x10514 + 5.1 x10614
   + 5.1 x10714 + 5.1 x10814 + 5.1 x10914 + 5.1 x101114 + 101.1 delta514
   <= 100
 c17_p15: 4.15 x1215 + 4.15 x1315 + 4.15 x1415 + 4.15 x1515 + 4.15 x1615
   + 4.15 x1715 + 4.15 x1815 + 4.15 x1915 + 4.15 x11015 + 4.15 x11115
   + 5.46 x2115 + 5.46 x2315 + 5.46 x2415 + 5.46 x2515 + 5.46 x2615
   + 5.46 x2715 + 5.46 x2815 + 5.46 x2915 + 5.46 x21015 + 5.46 x21115
   + 13.46 x3115 + 13.46 x3215 + 13.46 x3415 + 13.46 x3515 + 13.46 x3615
   + 13.46 x3715 + 13.46 x3815 + 13.46 x3915 + 13.46 x31015 + 13.46 x31115
   + 5.46 x4115 + 5.46 x4215 + 5.46 x4315 + 5.46 x4515 + 5.46 x4615
   + 5.46 x4715 + 5.46 x4815 + 5.46 x4915 + 5.46 x41015 + 5.46 x41115
   + 0.91 x6115 + 0.91 x6215 + 0.91 x6315 + 0.91 x6415 + 0.91 x6515
   + 0.91 x6715 + 0.91 x6815 + 0.91 x6915 + 0.91 x61015 + 0.91 x61115
   + 5.1 x7115 + 5.1 x7215 + 5.1 x7315 + 5.1 x7415 + 5.1 x7515 + 5.1 x7615
   + 5.1 x7815 + 5.1 x7915 + 5.1 x71015 + 5.1 x71115 + 5.85 x8115
   + 5.85 x8215 + 5.85 x8315 + 5.85 x8415 + 5.85 x8515 + 5.85 x8615
   + 5.85 x8715 + 5.85 x8915 + 5.85 x81015 + 5.85 x81115 + 5.85 x9115
   + 5.85 x9215 + 5.85 x9315 + 5.85 x9415 + 5.85 x9515 + 5.85 x9615
   + 5.85 x9715 + 5.85 x9815 + 5.85 x91015 + 5.85 x91115 + 5.1 x10115
   + 5.1 x10215 + 5.1 x10315 + 5.1 x10415 + 5.1 x10515 + 5.1 x10615
   + 5.1 x10715 + 5.1 x10815 + 5.1 x10915 + 5.1 x101115 + 101.1 delta515
   <= 100
 c17_p16: 4.15 x1216 + 4.15 x1316 + 4.15 x1416 + 4.15 x1516 + 4.15 x1616
   + 4.15 x1716 + 4.15 x1816 + 4.15 x1916 + 4.15 x11016 + 4.15 x11116
   + 5.46 x2116 + 5.46 x2316 + 5.46 x2416 + 5.46 x2516 + 5.46 x2616
   + 5.46 x2716 + 5.46 x2816 + 5.46 x2916 + 5.46 x21016 + 5.46 x21116
   + 13.46 x3116 + 13.46 x3216 + 13.46 x3416 + 13.46 x3516 + 13.46 x3616
   + 13.46 x3716 + 13.46 x3816 + 13.46 x3916 + 13.46 x31016 + 13.46 x31116
   + 5.46 x4116 + 5.46 x4216 + 5.46 x4316 + 5.46 x4516 + 5.46 x4616
   + 5.46 x4716 + 5.46 x4816 + 5.46 x4916 + 5.46 x41016 + 5.46 x41116
   + 0.91 x6116 + 0.91 x6216 + 0.91 x6316 + 0.91 x6416 + 0.91 x6516
   + 0.91 x6716 + 0.91 x6816 + 0.91 x6916 + 0.91 x61016 + 0.91 x61116
   + 5.1 x7116 + 5.1 x7216 + 5.1 x7316 + 5.1 x7416 + 5.1 x7516 + 5.1 x7616
   + 5.1 x7816 + 5.1 x7916 + 5.1 x71016 + 5.1 x71116 + 5.85 x8116
   + 5.85 x8216 + 5.85 x8316 + 5.85 x8416 + 5.85 x8516 + 5.85 x8616
   + 5.85 x8716 + 5.85 x8916 + 5.85 x81016 + 5.85 x81116 + 5.85 x9116
   + 5.85 x9216 + 5.85 x9316 + 5.85 x9416 + 5.85 x9516 + 5.85 x9616
   + 5.85 x9716 + 5.85 x9816 + 5.85 x91016 + 5.85 x91116 + 5.1 x10116
   + 5.1 x10216 + 5.1 x10316 + 5.1 x10416 + 5.1 x10516 + 5.1 x10616
   + 5.1 x10716 + 5.1 x10816 + 5.1 x10916 + 5.1 x101116 + 101.1 delta516
   <= 100
 c17_p17: 4.15 x1217 + 4.15 x1317 + 4.15 x1417 + 4.15 x1517 + 4.15 x1617
   + 4.15 x1717 + 4.15 x1817 + 4.15 x1917 + 4.15 x11017 + 4.15 x11117
   + 5.46 x2117 + 5.46 x2317 + 5.46 x2417 + 5.46 x2517 + 5.46 x2617
   + 5.46 x2717 + 5.46 x2817 + 5.46 x2917 + 5.46 x21017 + 5.46 x21117
   + 13.46 x3117 + 13.46 x3217 + 13.46 x3417 + 13.46 x3517 + 13.46 x3617
   + 13.46 x3717 + 13.46 x3817 + 13.46 x3917 + 13.46 x31017 + 13.46 x31117
   + 5.46 x4117 + 5.46 x4217 + 5.46 x4317 + 5.46 x4517 + 5.46 x4617
   + 5.46 x4717 + 5.46 x4817 + 5.46 x4917 + 5.46 x41017 + 5.46 x41117
   + 0.91 x6117 + 0.91 x6217 + 0.91 x6317 + 0.91 x6417 + 0.91 x6517
   + 0.91 x6717 + 0.91 x6817 + 0.91 x6917 + 0.91 x61017 + 0.91 x61117
   + 5.1 x7117 + 5.1 x7217 + 5.1 x7317 + 5.1 x7417 + 5.1 x7517 + 5.1 x7617
   + 5.1 x7817 + 5.1 x7917 + 5.1 x71017 + 5.1 x71117 + 5.85 x8117
   + 5.85 x8217 + 5.85 x8317 + 5.85 x8417 + 5.85 x8517 + 5.85 x8617
   + 5.85 x8717 + 5.85 x8917 + 5.85 x81017 + 5.85 x81117 + 5.85 x9117
   + 5.85 x9217 + 5.85 x9317 + 5.85 x9417 + 5.85 x9517 + 5.85 x9617
   + 5.85 x9717 + 5.85 x9817 + 5.85 x91017 + 5.85 x91117 + 5.1 x10117
   + 5.1 x10217 + 5.1 x10317 + 5.1 x10417 + 5.1 x10517 + 5.1 x10617
   + 5.1 x10717 + 5.1 x10817 + 5.1 x10917 + 5.1 x101117 + 101.1 delta517
   <= 100
 c17_p18: 4.15 x1218 + 4.15 x1318 + 4.15 x1418 + 4.15 x1518 + 4.15 x1618
   + 4.15 x1718 + 4.15 x1818 + 4.15 x1918 + 4.15 x11018 + 4.15 x11118
   + 5.46 x2118 + 5.46 x2318 + 5.46 x2418 + 5.46 x2518 + 5.46 x2618
   + 5.46 x2718 + 5.46 x2818 + 5.46 x2918 + 5.46 x21018 + 5.46 x21118
   + 13.46 x3118 + 13.46 x3218 + 13.46 x3418 + 13.46 x3518 + 13.46 x3618
   + 13.46 x3718 + 13.46 x3818 + 13.46 x3918 + 13.46 x31018 + 13.46 x31118
   + 5.46 x4118 + 5.46 x4218 + 5.46 x4318 + 5.46 x4518 + 5.46 x4618
   + 5.46 x4718 + 5.46 x4818 + 5.46 x4918 + 5.46 x41018 + 5.46 x41118
   + 0.91 x6118 + 0.91 x6218 + 0.91 x6318 + 0.91 x6418 + 0.91 x6518
   + 0.91 x6718 + 0.91 x6818 + 0.91 x6918 + 0.91 x61018 + 0.91 x61118
   + 5.1 x7118 + 5.1 x7218 + 5.1 x7318 + 5.1 x7418 + 5.1 x7518 + 5.1 x7618
   + 5.1 x7818 + 5.1 x7918 + 5.1 x71018 + 5.1 x71118 + 5.85 x8118
   + 5.85 x8218 + 5.85 x8318 + 5.85 x8418 + 5.85 x8518 + 5.85 x8618
   + 5.85 x8718 + 5.85 x8918 + 5.85 x81018 + 5.85 x81118 + 5.85 x9118
   + 5.85 x9218 + 5.85 x9318 + 5.85 x9418 + 5.85 x9518 + 5.85 x9618
   + 5.85 x9718 + 5.85 x9818 + 5.85 x91018 + 5.85 x91118 + 5.1 x10118
   + 5.1 x10218 + 5.1 x10318 + 5.1 x10418 + 5.1 x10518 + 5.1 x10618
   + 5.1 x10718 + 5.1 x10818 + 5.1 x10918 + 5.1 x101118 + 101.1 delta518
   <= 100
 c17_p19: 4.15 x1219 + 4.15 x1319 + 4.15 x1419 + 4.15 x1519 + 4.15 x1619
   + 4.15 x1719 + 4.15 x1819 + 4.15 x1919 + 4.15 x11019 + 4.15 x11119
   + 5.46 x2119 + 5.46 x2319 + 5.46 x2419 + 5.46 x2519 + 5.46 x2619
   + 5.46 x2719 + 5.46 x2819 + 5.46 x2919 + 5.46 x21019 + 5.46 x21119
   + 13.46 x3119 + 13.46 x3219 + 13.46 x3419 + 13.46 x3519 + 13.46 x3619
   + 13.46 x3719 + 13.46 x3819 + 13.46 x3919 + 13.46 x31019 + 13.46 x31119
   + 5.46 x4119 + 5.46 x4219 + 5.46 x4319 + 5.46 x4519 + 5.46 x4619
   + 5.46 x4719 + 5.46 x4819 + 5.46 x4919 + 5.46 x41019 + 5.46 x41119
   + 0.91 x6119 + 0.91 x6219 + 0.91 x6319 + 0.91 x6419 + 0.91 x6519
   + 0.91 x6719 + 0.91 x6819 + 0.91 x6919 + 0.91 x61019 + 0.91 x61119
   + 5.1 x7119 + 5.1 x7219 + 5.1 x7319 + 5.1 x7419 + 5.1 x7519 + 5.1 x7619
   + 5.1 x7819 + 5.1 x7919 + 5.1 x71019 + 5.1 x71119 + 5.85 x8119
   + 5.85 x8219 + 5.85 x8319 + 5.85 x8419 + 5.85 x8519 + 5.85 x8619
   + 5.85 x8719 + 5.85 x8919 + 5.85 x81019 + 5.85 x81119 + 5.85 x9119
   + 5.85 x9219 + 5.85 x9319 + 5.85 x9419 + 5.85 x9519 + 5.85 x9619
   + 5.85 x9719 + 5.85 x9819 + 5.85 x91019 + 5.85 x91119 + 5.1 x10119
   + 5.1 x10219 + 5.1 x10319 + 5.1 x10419 + 5.1 x10519 + 5.1 x10619
   + 5.1 x10719 + 5.1 x10819 + 5.1 x10919 + 5.1 x101119 + 101.1 delta519
   <= 100
 c26_i5: delta50 + delta51 + delta52 + delta53 + delta54 + delta55
   + delta56 + delta57 + delta58 + delta59 + delta510 + delta511 + delta512
   + delta513 + delta514 + delta515 + delta516 + delta517 + delta518
   + delta519 = 1
Bounds
Binaries
 x120 x121 x122 x123 x124 x125 x126 x127 x128 x129 x1210 x1211 x1212 x1213
 x1214 x1215 x1216 x1217 x1218 x1219 x130 x131 x132 x133 x134 x135 x136
 x137 x138 x139 x1310 x1311 x1312 x1313 x1314 x1315 x1316 x1317 x1318 x1319
 x140 x141 x142 x143 x144 x145 x146 x147 x148 x149 x1410 x1411 x1412 x1413
 x1414 x1415 x1416 x1417 x1418 x1419 x150 x151 x152 x153 x154 x155 x156
 x157 x158 x159 x1510 x1511 x1512 x1513 x1514 x1515 x1516 x1517 x1518 x1519
 x160 x161 x162 x163 x164 x165 x166 x167 x168 x169 x1610 x1611 x1612 x1613
 x1614 x1615 x1616 x1617 x1618 x1619 x170 x171 x172 x173 x174 x175 x176
 x177 x178 x179 x1710 x1711 x1712 x1713 x1714 x1715 x1716 x1717 x1718 x1719
 x180 x181 x182 x183 x184 x185 x186 x187 x188 x189 x1810 x1811 x1812 x1813
 x1814 x1815 x1816 x1817 x1818 x1819 x190 x191 x192 x193 x194 x195 x196
 x197 x198 x199 x1910 x1911 x1912 x1913 x1914 x1915 x1916 x1917 x1918 x1919
 x1100 x1101 x1102 x1103 x1104 x1105 x1106 x1107 x1108 x1109 x11010 x11011
 x11012 x11013 x11014 x11015 x11016 x11017 x11018 x11019 x1110 x1111 x1112
 x1113 x1114 x1115 x1116 x1117 x1118 x1119 x11110 x11111 x11112 x11113
 x11114 x11115 x11116 x11117 x11118 x11119 x210 x211 x212 x213 x214 x215
 x216 x217 x218 x219 x2110 x2111 x2112 x2113 x2114 x2115 x2116 x2117 x2118
 x2119 x230 x231 x232 x233 x234 x235 x236 x237 x238 x239 x2310 x2311 x2312
 x2313 x2314 x2315 x2316 x2317 x2318 x2319 x240 x241 x242 x243 x244 x245
 x246 x247 x248 x249 x2410 x2411 x2412 x2413 x2414 x2415 x2416 x2417 x2418
 x2419 x250 x251 x252 x253 x254 x255 x256 x257 x258 x259 x2510 x2511 x2512
 x2513 x2514 x2515 x2516 x2517 x2518 x2519 x260 x261 x262 x263 x264 x265
 x266 x267 x268 x269 x2610 x2611 x2612 x2613 x2614 x2615 x2616 x2617 x2618
 x2619 x270 x271 x272 x273 x274 x275 x276 x277 x278 x279 x2710 x2711 x2712
 x2713 x2714 x2715 x2716 x2717 x2718 x2719 x280 x281 x282 x283 x284 x285
 x286 x287 x288 x289 x2810 x2811 x2812 x2813 x2814 x2815 x2816 x2817 x2818
 x2819 x290 x291 x292 x293 x294 x295 x296 x297 x298 x299 x2910 x2911 x2912
 x2913 x2914 x2915 x2916 x2917 x2918 x2919 x2100 x2101 x2102 x2103 x2104
 x2105 x2106 x2107 x2108 x2109 x21010 x21011 x21012 x21013 x21014 x21015
 x21016 x21017 x21018 x21019 x2110 x2111 x2112 x2113 x2114 x2115 x2116
 x2117 x2118 x2119 x21110 x21111 x21112 x21113 x21114 x21115 x21116 x21117
 x21118 x21119 x310 x311 x312 x313 x314 x315 x316 x317 x318 x319 x3110
 x3111 x3112 x3113 x3114 x3115 x3116 x3117 x3118 x3119 x320 x321 x322 x323
 x324 x325 x326 x327 x328 x329 x3210 x3211 x3212 x3213 x3214 x3215 x3216
 x3217 x3218 x3219 x340 x341 x342 x343 x344 x345 x346 x347 x348 x349 x3410
 x3411 x3412 x3413 x3414 x3415 x3416 x3417 x3418 x3419 x350 x351 x352 x353
 x354 x355 x356 x357 x358 x359 x3510 x3511 x3512 x3513 x3514 x3515 x3516
 x3517 x3518 x3519 x360 x361 x362 x363 x364 x365 x366 x367 x368 x369 x3610
 x3611 x3612 x3613 x3614 x3615 x3616 x3617 x3618 x3619 x370 x371 x372 x373
 x374 x375 x376 x377 x378 x379 x3710 x3711 x3712 x3713 x3714 x3715 x3716
 x3717 x3718 x3719 x380 x381 x382 x383 x384 x385 x386 x387 x388 x389 x3810
 x3811 x3812 x3813 x3814 x3815 x3816 x3817 x3818 x3819 x390 x391 x392 x393
 x394 x395 x396 x397 x398 x399 x3910 x3911 x3912 x3913 x3914 x3915 x3916
 x3917 x3918 x3919 x3100 x3101 x3102 x3103 x3104 x3105 x3106 x3107 x3108
 x3109 x31010 x31011 x31012 x31013 x31014 x31015 x31016 x31017 x31018
 x31019 x3110 x3111 x3112 x3113 x3114 x3115 x3116 x3117 x3118 x3119 x31110
 x31111 x31112 x31113 x31114 x31115 x31116 x31117 x31118 x31119 x410 x411
 x412 x413 x414 x415 x416 x417 x418 x419 x4110 x4111 x4112 x4113 x4114
 x4115 x4116 x4117 x4118 x4119 x420 x421 x422 x423 x424 x425 x426 x427 x428
 x429 x4210 x4211 x4212 x4213 x4214 x4215 x4216 x4217 x4218 x4219 x430 x431
 x432 x433 x434 x435 x436 x437 x438 x439 x4310 x4311 x4312 x4313 x4314
 x4315 x4316 x4317 x4318 x4319 x450 x451 x452 x453 x454 x455 x456 x457 x458
 x459 x4510 x4511 x4512 x4513 x4514 x4515 x4516 x4517 x4518 x4519 x460 x461
 x462 x463 x464 x465 x466 x467 x468 x469 x4610 x4611 x4612 x4613 x4614
 x4615 x4616 x4617 x4618 x4619 x470 x471 x472 x473 x474 x475 x476 x477 x478
 x479 x4710 x4711 x4712 x4713 x4714 x4715 x4716 x4717 x4718 x4719 x480 x481
 x482 x483 x484 x485 x486 x487 x488 x489 x4810 x4811 x4812 x4813 x4814
 x4815 x4816 x4817 x4818 x4819 x490 x491 x492 x493 x494 x495 x496 x497 x498
 x499 x4910 x4911 x4912 x4913 x4914 x4915 x4916 x4917 x4918 x4919 x4100
 x4101 x4102 x4103 x4104 x4105 x4106 x4107 x4108 x4109 x41010 x41011 x41012
 x41013 x41014 x41015 x41016 x41017 x41018 x41019 x4110 x4111 x4112 x4113
 x4114 x4115 x4116 x4117 x4118 x4119 x41110 x41111 x41112 x41113 x41114
 x41115 x41116 x41117 x41118 x41119 x610 x611 x612 x613 x614 x615 x616 x617
 x618 x619 x6110 x6111 x6112 x6113 x6114 x6115 x6116 x6117 x6118 x6119 x620
 x621 x622 x623 x624 x625 x626 x627 x628 x629 x6210 x6211 x6212 x6213 x6214
 x6215 x6216 x6217 x6218 x6219 x630 x631 x632 x633 x634 x635 x636 x637 x638
 x639 x6310 x6311 x6312 x6313 x6314 x6315 x6316 x6317 x6318 x6319 x640 x641
 x642 x643 x644 x645 x646 x647 x648 x649 x6410 x6411 x6412 x6413 x6414
 x6415 x6416 x6417 x6418 x6419 x650 x651 x652 x653 x654 x655 x656 x657 x658
 x659 x6510 x6511 x6512 x6513 x6514 x6515 x6516 x6517 x6518 x6519 x670 x671
 x672 x673 x674 x675 x676 x677 x678 x679 x6710 x6711 x6712 x6713 x6714
 x6715 x6716 x6717 x6718 x6719 x680 x681 x682 x683 x684 x685 x686 x687 x688
 x689 x6810 x6811 x6812 x6813 x6814 x6815 x6816 x6817 x6818 x6819 x690 x691
 x692 x693 x694 x695 x696 x697 x698 x699 x6910 x6911 x6912 x6913 x6914
 x6915 x6916 x6917 x6918 x6919 x6100 x6101 x6102 x6103 x6104 x6105 x6106
 x6107 x6108 x6109 x61010 x61011 x61012 x61013 x61014 x61015 x61016 x61017
 x61018 x61019 x6110 x6111 x6112 x6113 x6114 x6115 x6116 x6117 x6118 x6119
 x61110 x61111 x61112 x61113 x61114 x61115 x61116 x61117 x61118 x61119 x710
 x711 x712 x713 x714 x715 x716 x717 x718 x719 x7110 x7111 x7112 x7113 x7114
 x7115 x7116 x7117 x7118 x7119 x720 x721 x722 x723 x724 x725 x726 x727 x728
 x729 x7210 x7211 x7212 x7213 x7214 x7215 x7216 x7217 x7218 x7219 x730 x731
 x732 x733 x734 x735 x736 x737 x738 x739 x7310 x7311 x7312 x7313 x7314
 x7315 x7316 x7317 x7318 x7319 x740 x741 x742 x743 x744 x745 x746 x747 x748
 x749 x7410 x7411 x7412 x7413 x7414 x7415 x7416 x7417 x7418 x7419 x750 x751
 x752 x753 x754 x755 x756 x757 x758 x759 x7510 x7511 x7512 x7513 x7514
 x7515 x7516 x7517 x7518 x7519 x760 x761 x762 x763 x764 x765 x766 x767 x768
 x769 x7610 x7611 x7612 x7613 x7614 x7615 x7616 x7617 x7618 x7619 x780 x781
 x782 x783 x784 x785 x786 x787 x788 x789 x7810 x7811 x7812 x7813 x7814
 x7815 x7816 x7817 x7818 x7819 x790 x791 x792 x793 x794 x795 x796 x797 x798
 x799 x7910 x7911 x7912 x7913 x7914 x7915 x7916 x7917 x7918 x7919 x7100
 x7101 x7102 x7103 x7104 x7105 x7106 x7107 x7108 x7109 x71010 x71011 x71012
 x71013 x71014 x71015 x71016 x71017 x71018 x71019 x7110 x7111 x7112 x7113
 x7114 x7115 x7116 x7117 x7118 x7119 x71110 x71111 x71112 x71113 x71114
 x71115 x71116 x71117 x71118 x71119 x810 x811 x812 x813 x814 x815 x816 x817
 x818 x819 x8110 x8111 x8112 x8113 x8114 x8115 x8116 x8117 x8118 x8119 x820
 x821 x822 x823 x824 x825 x826 x827 x828 x829 x8210 x8211 x8212 x8213 x8214
 x8215 x8216 x8217 x8218 x8219 x830 x831 x832 x833 x834 x835 x836 x837 x838
 x839 x8310 x8311 x8312 x8313 x8314 x8315 x8316 x8317 x8318 x8319 x840 x841
 x842 x843 x844 x845 x846 x847 x848 x849 x8410 x8411 x8412 x8413 x8414
 x8415 x8416 x8417 x8418 x8419 x850 x851 x852 x853 x854 x855 x856 x857 x858
 x859 x8510 x8511 x8512 x8513 x8514 x8515 x8516 x8517 x8518 x8519 x860 x861
 x862 x863 x864 x865 x866 x867 x868 x869 x8610 x8611 x8612 x8613 x8614
 x8615 x8616 x8617 x8618 x8619 x870 x871 x872 x873 x874 x875 x876 x877 x878
 x879 x8710 x8711 x8712 x8713 x8714 x8715 x8716 x8717 x8718 x8719 x890 x891
 x892 x893 x894 x895 x896 x897 x898 x899 x8910 x8911 x8912 x8913 x8914
 x8915 x8916 x8917 x8918 x8919 x8100 x8101 x8102 x8103 x8104 x8105 x8106
 x8107 x8108 x8109 x81010 x81011 x81012 x81013 x81014 x81015 x81016 x81017
 x81018 x81019 x8110 x8111 x8112 x8113 x8114 x8115 x8116 x8117 x8118 x8119
 x81110 x81111 x81112 x81113 x81114 x81115 x81116 x81117 x81118 x81119 x910
 x911 x912 x913 x914 x915 x916 x917 x918 x919 x9110 x9111 x9112 x9113 x9114
 x9115 x9116 x9117 x9118 x9119 x920 x921 x922 x923 x924 x925 x926 x927 x928
 x929 x9210 x9211 x9212 x9213 x9214 x9215 x9216 x9217 x9218 x9219 x930 x931
 x932 x933 x934 x935 x936 x937 x938 x939 x9310 x9311 x9312 x9313 x9314
 x9315 x9316 x9317 x9318 x9319 x940 x941 x942 x943 x944 x945 x946 x947 x948
 x949 x9410 x9411 x9412 x9413 x9414 x9415 x9416 x9417 x9418 x9419 x950 x951
 x952 x953 x954 x955 x956 x957 x958 x959 x9510 x9511 x9512 x9513 x9514
 x9515 x9516 x9517 x9518 x9519 x960 x961 x962 x963 x964 x965 x966 x967 x968
 x969 x9610 x9611 x9612 x9613 x9614 x9615 x9616 x9617 x9618 x9619 x970 x971
 x972 x973 x974 x975 x976 x977 x978 x979 x9710 x9711 x9712 x9713 x9714
 x9715 x9716 x9717 x9718 x9719 x980 x981 x982 x983 x984 x985 x986 x987 x988
 x989 x9810 x9811 x9812 x9813 x9814 x9815 x9816 x9817 x9818 x9819 x9100
 x9101 x9102 x9103 x9104 x9105 x9106 x9107 x9108 x9109 x91010 x91011 x91012
 x91013 x91014 x91015 x91016 x91017 x91018 x91019 x9110 x9111 x9112 x9113
 x9114 x9115 x9116 x9117 x9118 x9119 x91110 x91111 x91112 x91113 x91114
 x91115 x91116 x91117 x91118 x91119 x1010 x1011 x1012 x1013 x1014 x1015
 x1016 x1017 x1018 x1019 x10110 x10111 x10112 x10113 x10114 x10115 x10116
 x10117 x10118 x10119 x1020 x1021 x1022 x1023 x1024 x1025 x1026 x1027 x1028
 x1029 x10210 x10211 x10212 x10213 x10214 x10215 x10216 x10217 x10218
 x10219 x1030 x1031 x1032 x1033 x1034 x1035 x1036 x1037 x1038 x1039 x10310
 x10311 x10312 x10313 x10314 x10315 x10316 x10317 x10318 x10319 x1040 x1041
 x1042 x1043 x1044 x1045 x1046 x1047 x1048 x1049 x10410 x10411 x10412
 x10413 x10414 x10415 x10416 x10417 x10418 x10419 x1050 x1051 x1052 x1053
 x1054 x1055 x1056 x1057 x1058 x1059 x10510 x10511 x10512 x10513 x10514
 x10515 x10516 x10517 x10518 x10519 x1060 x1061 x1062 x1063 x1064 x1065
 x1066 x1067 x1068 x1069 x10610 x10611 x10612 x10613 x10614 x10615 x10616
 x10617 x10618 x10619 x1070 x1071 x1072 x1073 x1074 x1075 x1076 x1077 x1078
 x1079 x10710 x10711 x10712 x10713 x10714 x10715 x10716 x10717 x10718
 x10719 x1080 x1081 x1082 x1083 x1084 x1085 x1086 x1087 x1088 x1089 x10810
 x10811 x10812 x10813 x10814 x10815 x10816 x10817 x10818 x10819 x1090 x1091
 x1092 x1093 x1094 x1095 x1096 x1097 x1098 x1099 x10910 x10911 x10912
 x10913 x10914 x10915 x10916 x10917 x10918 x10919 x10110 x10111 x10112
 x10113 x10114 x10115 x10116 x10117 x10118 x10119 x101110 x101111 x101112
 x101113 x101114 x101115 x101116 x101117 x101118 x101119 delta50 delta51
 delta52 delta53 delta54 delta55 delta56 delta57 delta58 delta59 delta510
 delta511 delta512 delta513 delta514 delta515 delta516 delta517 delta518
 delta519
End
